c This is an instance of the exact track of PACE 2020 Challenge, see https://pacechallenge.org/2020/ 
c TYPE: infrastructure 
c ORIGIN: Open street maps 
c DESCRIPTION: Różanna (Poland): a road network downloaded from open street maps using osmnx Python package 
p tdp 68 83
1 2
1 35
1 68
2 66
2 6
3 43
3 17
3 45
4 21
4 29
4 34
5 30
5 40
5 37
5 14
6 26
7 8
7 50
7 52
8 34
8 21
9 33
9 10
9 11
10 35
10 12
11 16
11 12
12 40
13 14
13 19
13 33
14 15
15 18
15 19
16 18
16 17
17 20
18 20
20 29
21 30
22 66
23 34
23 43
24 27
24 38
24 25
25 28
25 39
26 36
26 39
27 28
29 30
31 65
31 64
32 63
36 37
36 39
37 38
38 40
41 60
41 42
43 44
46 55
46 52
46 47
48 60
48 49
48 58
50 54
51 54
52 53
55 56
55 58
57 58
59 60
61 64
62 63
63 64
65 68
65 67
66 67
67 68
